proyfinal/src/viki/013/experimentInOfficeAgust.take6.output/7fc4ace1-d463-4fd0-94ee-c98decec3945.als.out
Reading from standard input... Use '--help' for help.
============================[ Problem Statistics ]=============================
|                                                                             |
|  Number of variables:         87638                                         |
|  Number of clauses:          161767                                         |
|  Parse time:                   0.04 s                                       |
|                                                                             |
============================[ Search Statistics ]==============================
| Conflicts |          ORIGINAL         |          LEARNT          | Progress |
|           |    Vars  Clauses Literals |    Limit  Clauses Lit/Cl |          |
===============================================================================
|       100 |   63221   108248   270380 |    39690      100      8 | 27.861 % |
|       250 |   63221   108248   270380 |    43660      250     26 | 27.861 % |
|       475 |   63220   108245   270374 |    48026      474     49 | 27.862 % |
|       812 |   63219   108242   270368 |    52828      810     52 | 27.863 % |
|      1318 |   63188   108080   270003 |    58111     1313     50 | 27.899 % |
|      2077 |   63176   108029   269865 |    63922     1982     64 | 27.913 % |
|      3216 |   63172   108013   269821 |    70314     3109     62 | 27.917 % |
|      4924 |   54240    81386   204279 |    77346     4750     68 | 38.109 % |
|      7486 |   54064    80672   202595 |    85081     7232     73 | 38.310 % |
|     11330 |   53801    79488   199776 |    93589    10434     76 | 38.610 % |
|     17096 |   53552    78759   198061 |   102948    13953     74 | 38.894 % |
===============================================================================
restarts              : 63
conflicts             : 18297          (7508 /sec)
decisions             : 74467          (0.00 % random) (30556 /sec)
propagations          : 26185530       (10744655 /sec)
conflict literals     : 1395701        (43.50 % deleted)
Memory used           : 36.98 MB
CPU time              : 2.43708 s

INDETERMINATE
